p cnf 12 50 
-11 4 -3 0
-11 9 10 0
-8 -6 -5 0
-11 8 5 0
9 7 1 0
4 -5 11 0
7 -11 -6 0
-6 10 -2 0
-1 -6 4 0
12 -5 6 0
4 3 12 0
-8 -2 -12 0
11 12 8 0
10 7 -9 0
5 3 -10 0
-3 5 2 0
12 10 -6 0
1 6 11 0
7 -5 4 0
6 -11 -12 0
1 -4 -9 0
4 -3 11 0
6 1 9 0
5 -11 -9 0
-1 10 -4 0
8 -1 -7 0
1 -3 -9 0
6 9 -4 0
-10 9 1 0
6 -1 -9 0
-4 -1 -7 0
12 -11 1 0
10 2 8 0
8 10 1 0
11 -8 -5 0
2 12 6 0
-3 10 -1 0
-3 -4 -7 0
2 5 4 0
-12 1 7 0
6 4 11 0
-1 10 -6 0
-2 -9 -8 0
-8 5 -10 0
11 9 -6 0
-11 -5 6 0
-1 -5 -10 0
-3 -1 4 0
2 12 10 0
-1 9 -2 0
